

******************************************************************************
This program contains Ipopt, a library for large-scale nonlinear optimization.
 Ipopt is released as open source code under the Eclipse Public License (EPL).
         For more information visit https://github.com/coin-or/Ipopt
******************************************************************************

This is Ipopt version 3.14.11, running with linear solver MUMPS 5.5.1.

Number of nonzeros in equality constraint Jacobian...:        0
Number of nonzeros in inequality constraint Jacobian.:        3
Number of nonzeros in Lagrangian Hessian.............:        3

Total number of variables............................:        3
                     variables with only lower bounds:        0
                variables with lower and upper bounds:        3
                     variables with only upper bounds:        0
Total number of equality constraints.................:        0
Total number of inequality constraints...............:        1
        inequality constraints with only lower bounds:        0
   inequality constraints with lower and upper bounds:        0
        inequality constraints with only upper bounds:        1

iter    objective    inf_pr   inf_du lg(mu)  ||d||  lg(rg) alpha_du alpha_pr  ls
   0 -1.0000000e+03 0.00e+00 4.99e+01  -1.0 0.00e+00    -  0.00e+00 0.00e+00   0
   1 -1.0501248e+03 0.00e+00 5.19e+01  -1.0 5.19e-01   2.0 9.54e-01 1.00e+00f  1
   2 -1.2075259e+03 0.00e+00 5.79e+01  -1.0 1.74e+00   1.5 1.00e+00 1.00e+00f  1
   3 -1.8600260e+03 0.00e+00 7.85e+01  -1.0 7.07e+00   1.0 1.00e+00 1.00e+00f  1
   4 -1.8907800e+03 0.00e+00 7.94e+01  -1.0 8.37e+01   0.6 5.52e-01 3.76e-03f  1
   5 -2.9165483e+03 0.00e+00 9.77e+01  -1.0 1.02e+01   1.0 1.00e+00 8.75e-01f  1
   6 -2.9309426e+03 0.00e+00 2.98e+02  -1.0 6.24e+01   0.5 6.23e-01 1.87e-03f  1
   7 -3.2961332e+03 0.00e+00 7.39e+03  -1.0 7.45e+02    -  1.00e+00 4.46e-03f  1
   8 -3.2997016e+03 0.00e+00 1.00e-06  -1.0 3.25e-02    -  1.00e+00 1.00e+00f  1
   9 -3.2999915e+03 0.00e+00 3.14e-06  -2.5 1.99e-03    -  1.00e+00 1.00e+00f  1
iter    objective    inf_pr   inf_du lg(mu)  ||d||  lg(rg) alpha_du alpha_pr  ls
  10 -3.2999996e+03 0.00e+00 2.32e-09  -3.8 4.87e-05    -  1.00e+00 1.00e+00f  1
  11 -3.3000001e+03 0.00e+00 1.84e-11  -5.7 2.70e-06    -  1.00e+00 1.00e+00f  1
  12 -3.3000001e+03 0.00e+00 2.84e-14  -8.6 3.35e-08    -  1.00e+00 1.00e+00f  1

Number of Iterations....: 12

                                   (scaled)                 (unscaled)
Objective...............:  -3.3000000989924829e+03   -3.3000000989924829e+03
Dual infeasibility......:   2.8421709430404007e-14    2.8421709430404007e-14
Constraint violation....:   0.0000000000000000e+00    0.0000000000000000e+00
Variable bound violation:   1.9995443523157519e-07    1.9995443523157519e-07
Complementarity.........:   2.5059954613335192e-09    2.5059954613335192e-09
Overall NLP error.......:   2.5059954613335192e-09    2.5059954613335192e-09


Number of objective function evaluations             = 13
Number of objective gradient evaluations             = 13
Number of equality constraint evaluations            = 0
Number of inequality constraint evaluations          = 13
Number of equality constraint Jacobian evaluations   = 0
Number of inequality constraint Jacobian evaluations = 13
Number of Lagrangian Hessian evaluations             = 12
Total seconds in IPOPT                               = 0.009

EXIT: Optimal Solution Found.
 
Ipopt 3.14.11: Optimal Solution Found
